(set-info :smt-lib-version 2.6)
(set-info :category "crafted")
(set-logic QF_FF)
(define-sort FF0 () (_ FiniteField 52435875175126190479447740508185965837690552500527637822603658699938581184513))
(declare-fun return_n0_alt () FF0)
(declare-fun mul_n15_alt () FF0)
(declare-fun mul_n64_alt () FF0)
(declare-fun mul_n34_alt () FF0)
(declare-fun mul_n63_alt () FF0)
(declare-fun mul_n35_alt () FF0)
(declare-fun mul_n62_alt () FF0)
(declare-fun mul_n49_alt () FF0)
(declare-fun mul_n61_alt () FF0)
(declare-fun mul_n52_alt () FF0)
(declare-fun mul_n59_alt () FF0)
(declare-fun mul_n60_alt () FF0)
(declare-fun mul_n37_alt () FF0)
(declare-fun mul_n29_alt () FF0)
(declare-fun mul_n58_alt () FF0)
(declare-fun f_n1_alt () FF0)
(declare-fun mul_n57_alt () FF0)
(declare-fun mul_n56_alt () FF0)
(declare-fun a_n10_alt () FF0)
(declare-fun mul_n17_alt () FF0)
(declare-fun mul_n55_alt () FF0)
(declare-fun h_n7_alt () FF0)
(declare-fun mul_n54_alt () FF0)
(declare-fun d_n4_alt () FF0)
(declare-fun mul_n53_alt () FF0)
(declare-fun mul_n28_alt () FF0)
(declare-fun mul_n11_alt () FF0)
(declare-fun mul_n50_alt () FF0)
(declare-fun mul_n51_alt () FF0)
(declare-fun mul_n45_alt () FF0)
(declare-fun b_n8_alt () FF0)
(declare-fun c_n6_alt () FF0)
(declare-fun mul_n48_alt () FF0)
(declare-fun mul_n47_alt () FF0)
(declare-fun mul_n38_alt () FF0)
(declare-fun mul_n46_alt () FF0)
(declare-fun g_n9_alt () FF0)
(declare-fun mul_n43_alt () FF0)
(declare-fun mul_n44_alt () FF0)
(declare-fun mul_n13_alt () FF0)
(declare-fun mul_n19_alt () FF0)
(declare-fun mul_n18_alt () FF0)
(declare-fun mul_n42_alt () FF0)
(declare-fun mul_n41_alt () FF0)
(declare-fun mul_n40_alt () FF0)
(declare-fun mul_n39_alt () FF0)
(declare-fun e_n2_alt () FF0)
(declare-fun mul_n30_alt () FF0)
(declare-fun mul_n33_alt () FF0)
(declare-fun i_n5_alt () FF0)
(declare-fun mul_n20_alt () FF0)
(declare-fun mul_n36_alt () FF0)
(declare-fun mul_n16_alt () FF0)
(declare-fun mul_n32_alt () FF0)
(declare-fun mul_n31_alt () FF0)
(declare-fun mul_n27_alt () FF0)
(declare-fun mul_n26_alt () FF0)
(declare-fun j_n3_alt () FF0)
(declare-fun mul_n25_alt () FF0)
(declare-fun mul_n24_alt () FF0)
(declare-fun mul_n23_alt () FF0)
(declare-fun mul_n22_alt () FF0)
(declare-fun mul_n21_alt () FF0)
(declare-fun mul_n14_alt () FF0)
(declare-fun mul_n12_alt () FF0)
(declare-fun return_n0 () FF0)
(declare-fun mul_n15 () FF0)
(declare-fun mul_n64 () FF0)
(declare-fun mul_n34 () FF0)
(declare-fun mul_n63 () FF0)
(declare-fun mul_n35 () FF0)
(declare-fun mul_n62 () FF0)
(declare-fun mul_n49 () FF0)
(declare-fun mul_n61 () FF0)
(declare-fun mul_n52 () FF0)
(declare-fun mul_n59 () FF0)
(declare-fun mul_n60 () FF0)
(declare-fun mul_n37 () FF0)
(declare-fun mul_n29 () FF0)
(declare-fun mul_n58 () FF0)
(declare-fun f_n1 () FF0)
(declare-fun mul_n57 () FF0)
(declare-fun mul_n56 () FF0)
(declare-fun a_n10 () FF0)
(declare-fun mul_n17 () FF0)
(declare-fun mul_n55 () FF0)
(declare-fun h_n7 () FF0)
(declare-fun mul_n54 () FF0)
(declare-fun d_n4 () FF0)
(declare-fun mul_n53 () FF0)
(declare-fun mul_n28 () FF0)
(declare-fun mul_n11 () FF0)
(declare-fun mul_n50 () FF0)
(declare-fun mul_n51 () FF0)
(declare-fun mul_n45 () FF0)
(declare-fun b_n8 () FF0)
(declare-fun c_n6 () FF0)
(declare-fun mul_n48 () FF0)
(declare-fun mul_n47 () FF0)
(declare-fun mul_n38 () FF0)
(declare-fun mul_n46 () FF0)
(declare-fun g_n9 () FF0)
(declare-fun mul_n43 () FF0)
(declare-fun mul_n44 () FF0)
(declare-fun mul_n13 () FF0)
(declare-fun mul_n19 () FF0)
(declare-fun mul_n18 () FF0)
(declare-fun mul_n42 () FF0)
(declare-fun mul_n41 () FF0)
(declare-fun mul_n40 () FF0)
(declare-fun mul_n39 () FF0)
(declare-fun e_n2 () FF0)
(declare-fun mul_n30 () FF0)
(declare-fun mul_n33 () FF0)
(declare-fun i_n5 () FF0)
(declare-fun mul_n20 () FF0)
(declare-fun mul_n36 () FF0)
(declare-fun mul_n16 () FF0)
(declare-fun mul_n32 () FF0)
(declare-fun mul_n31 () FF0)
(declare-fun mul_n27 () FF0)
(declare-fun mul_n26 () FF0)
(declare-fun j_n3 () FF0)
(declare-fun mul_n25 () FF0)
(declare-fun mul_n24 () FF0)
(declare-fun mul_n23 () FF0)
(declare-fun mul_n22 () FF0)
(declare-fun mul_n21 () FF0)
(declare-fun mul_n14 () FF0)
(declare-fun mul_n12 () FF0)
(assert 
  (let ((let0 return_n0_alt))
  (let ((let1 (as ff1 FF0)))
  (let ((let2 (as ff52435875175126190479447740508185965837690552500527637822603658699938581184512 FF0)))
  (let ((let3 mul_n15_alt))
  (let ((let4 (ff.mul let3 let2)))
  (let ((let5 (ff.add let4 let1)))
  (let ((let6 mul_n64_alt))
  (let ((let7 (ff.mul let6 let5)))
  (let ((let8 (= let7 let0)))
  (let ((let9 mul_n34_alt))
  (let ((let10 mul_n63_alt))
  (let ((let11 (ff.mul let10 let9)))
  (let ((let12 (= let11 let6)))
  (let ((let13 mul_n35_alt))
  (let ((let14 (ff.mul let13 let2)))
  (let ((let15 (ff.add let14 let1)))
  (let ((let16 mul_n62_alt))
  (let ((let17 (ff.mul let16 let15)))
  (let ((let18 (= let17 let10)))
  (let ((let19 mul_n49_alt))
  (let ((let20 (ff.mul let19 let2)))
  (let ((let21 (ff.add let20 let1)))
  (let ((let22 mul_n61_alt))
  (let ((let23 (ff.mul let22 let21)))
  (let ((let24 (= let23 let16)))
  (let ((let25 mul_n52_alt))
  (let ((let26 (ff.mul let25 let2)))
  (let ((let27 (ff.add let26 let1)))
  (let ((let28 mul_n59_alt))
  (let ((let29 mul_n60_alt))
  (let ((let30 (ff.add let29 let28)))
  (let ((let31 (ff.mul let30 let27)))
  (let ((let32 (= let31 let22)))
  (let ((let33 (ff.mul let28 let2)))
  (let ((let34 mul_n37_alt))
  (let ((let35 (ff.add let34 let33)))
  (let ((let36 (ff.mul let28 let35)))
  (let ((let37 (= let36 let29)))
  (let ((let38 mul_n29_alt))
  (let ((let39 (ff.mul let38 let2)))
  (let ((let40 (ff.add let39 let1)))
  (let ((let41 mul_n58_alt))
  (let ((let42 (ff.mul let41 let40)))
  (let ((let43 (= let42 let28)))
  (let ((let44 f_n1_alt))
  (let ((let45 (ff.mul let44 let2)))
  (let ((let46 (ff.add let45 let1)))
  (let ((let47 mul_n57_alt))
  (let ((let48 (ff.mul let47 let46)))
  (let ((let49 (= let48 let41)))
  (let ((let50 mul_n56_alt))
  (let ((let51 (ff.mul let50 let44)))
  (let ((let52 (= let51 let47)))
  (let ((let53 a_n10_alt))
  (let ((let54 mul_n17_alt))
  (let ((let55 (ff.add let54 let53)))
  (let ((let56 mul_n55_alt))
  (let ((let57 (ff.mul let56 let55)))
  (let ((let58 (= let57 let50)))
  (let ((let59 h_n7_alt))
  (let ((let60 mul_n54_alt))
  (let ((let61 (ff.mul let60 let59)))
  (let ((let62 (= let61 let56)))
  (let ((let63 d_n4_alt))
  (let ((let64 mul_n53_alt))
  (let ((let65 (ff.mul let64 let63)))
  (let ((let66 (= let65 let60)))
  (let ((let67 mul_n28_alt))
  (let ((let68 (ff.mul let46 let67)))
  (let ((let69 (= let68 let64)))
  (let ((let70 mul_n11_alt))
  (let ((let71 mul_n50_alt))
  (let ((let72 (ff.mul let71 let2)))
  (let ((let73 (ff.add let72 let70)))
  (let ((let74 mul_n51_alt))
  (let ((let75 (ff.mul let74 let73)))
  (let ((let76 (= let75 let25)))
  (let ((let77 mul_n45_alt))
  (let ((let78 (ff.mul let9 let77)))
  (let ((let79 (= let78 let74)))
  (let ((let80 b_n8_alt))
  (let ((let81 (ff.mul let80 let2)))
  (let ((let82 (ff.add let81 let70)))
  (let ((let83 (ff.mul let77 let2)))
  (let ((let84 (ff.add let83 let1)))
  (let ((let85 (ff.mul let84 let82)))
  (let ((let86 (= let85 let71)))
  (let ((let87 c_n6_alt))
  (let ((let88 (ff.mul let87 let2)))
  (let ((let89 (ff.add let88 let1)))
  (let ((let90 mul_n48_alt))
  (let ((let91 (ff.mul let90 let89)))
  (let ((let92 (= let91 let19)))
  (let ((let93 (ff.mul let34 let2)))
  (let ((let94 (ff.add let93 let1)))
  (let ((let95 mul_n47_alt))
  (let ((let96 (ff.mul let95 let94)))
  (let ((let97 (= let96 let90)))
  (let ((let98 mul_n38_alt))
  (let ((let99 (ff.mul let98 let2)))
  (let ((let100 mul_n46_alt))
  (let ((let101 (ff.mul let100 let2)))
  (let ((let102 g_n9_alt))
  (let ((let103 (ff.mul let102 let2)))
  (let ((let104 (ff.add let103 let101 let99 let1)))
  (let ((let105 (ff.mul let80 let104)))
  (let ((let106 (= let105 let95)))
  (let ((let107 (ff.add let103 let99 let59)))
  (let ((let108 (ff.mul let84 let107)))
  (let ((let109 (= let108 let100)))
  (let ((let110 mul_n43_alt))
  (let ((let111 mul_n44_alt))
  (let ((let112 (ff.mul let111 let110)))
  (let ((let113 (= let112 let77)))
  (let ((let114 mul_n13_alt))
  (let ((let115 (ff.mul let114 let110)))
  (let ((let116 (= let115 let111)))
  (let ((let117 mul_n19_alt))
  (let ((let118 (ff.mul let117 let2)))
  (let ((let119 mul_n18_alt))
  (let ((let120 (ff.add let114 let119 let87 let118)))
  (let ((let121 mul_n42_alt))
  (let ((let122 (ff.mul let121 let120)))
  (let ((let123 (= let122 let110)))
  (let ((let124 mul_n41_alt))
  (let ((let125 (ff.mul let124 let120)))
  (let ((let126 (= let125 let121)))
  (let ((let127 (ff.add let103 let99 let1)))
  (let ((let128 mul_n40_alt))
  (let ((let129 (ff.mul let128 let127)))
  (let ((let130 (= let129 let124)))
  (let ((let131 mul_n39_alt))
  (let ((let132 (ff.mul let131 let127)))
  (let ((let133 (= let132 let128)))
  (let ((let134 e_n2_alt))
  (let ((let135 (ff.mul let134 let2)))
  (let ((let136 mul_n30_alt))
  (let ((let137 (ff.mul let136 let2)))
  (let ((let138 (ff.add let137 let135 let1)))
  (let ((let139 (ff.mul let138 let87)))
  (let ((let140 (= let139 let131)))
  (let ((let141 mul_n33_alt))
  (let ((let142 (ff.mul let141 let2)))
  (let ((let143 (ff.add let142 let103 let1)))
  (let ((let144 (ff.mul let59 let2)))
  (let ((let145 i_n5_alt))
  (let ((let146 (ff.mul let145 let2)))
  (let ((let147 mul_n20_alt))
  (let ((let148 (ff.add let147 let146 let144 let1)))
  (let ((let149 (ff.mul let148 let143)))
  (let ((let150 (= let149 let98)))
  (let ((let151 (ff.add let114 let119)))
  (let ((let152 mul_n36_alt))
  (let ((let153 (ff.mul let152 let151)))
  (let ((let154 (= let153 let34)))
  (let ((let155 (ff.mul let114 let2)))
  (let ((let156 (ff.add let155 let1)))
  (let ((let157 mul_n16_alt))
  (let ((let158 (ff.mul let157 let2)))
  (let ((let159 (ff.add let158 let1)))
  (let ((let160 (ff.mul let159 let156)))
  (let ((let161 (= let160 let152)))
  (let ((let162 (ff.mul let67 let114)))
  (let ((let163 (= let162 let13)))
  (let ((let164 (ff.mul let40 let141)))
  (let ((let165 (= let164 let9)))
  (let ((let166 (ff.mul let53 let2)))
  (let ((let167 (ff.add let166 let1)))
  (let ((let168 mul_n32_alt))
  (let ((let169 (ff.mul let168 let167)))
  (let ((let170 (= let169 let141)))
  (let ((let171 mul_n31_alt))
  (let ((let172 (ff.mul let171 let38)))
  (let ((let173 (= let172 let168)))
  (let ((let174 (ff.mul let70 let138)))
  (let ((let175 (= let174 let171)))
  (let ((let176 (ff.add let53 let135)))
  (let ((let177 (ff.mul let114 let176)))
  (let ((let178 (= let177 let136)))
  (let ((let179 (ff.mul let67 let2)))
  (let ((let180 (ff.add let179 let1)))
  (let ((let181 (ff.mul let159 let180)))
  (let ((let182 (= let181 let38)))
  (let ((let183 (ff.add let103 let1)))
  (let ((let184 mul_n27_alt))
  (let ((let185 (ff.mul let184 let183)))
  (let ((let186 (= let185 let67)))
  (let ((let187 mul_n26_alt))
  (let ((let188 (ff.mul let187 let159)))
  (let ((let189 (= let188 let184)))
  (let ((let190 j_n3_alt))
  (let ((let191 mul_n25_alt))
  (let ((let192 (ff.mul let191 let190)))
  (let ((let193 (= let192 let187)))
  (let ((let194 mul_n24_alt))
  (let ((let195 (ff.mul let194 let183)))
  (let ((let196 (= let195 let191)))
  (let ((let197 (ff.mul let119 let2)))
  (let ((let198 (ff.add let155 let197 let88 let117 let1)))
  (let ((let199 mul_n23_alt))
  (let ((let200 (ff.mul let199 let198)))
  (let ((let201 (= let200 let194)))
  (let ((let202 mul_n22_alt))
  (let ((let203 (ff.mul let202 let148)))
  (let ((let204 (= let203 let199)))
  (let ((let205 mul_n21_alt))
  (let ((let206 (ff.mul let205 let134)))
  (let ((let207 (= let206 let202)))
  (let ((let208 (ff.mul let63 let151)))
  (let ((let209 (= let208 let205)))
  (let ((let210 (as ff2 FF0)))
  (let ((let211 (ff.mul let145 let210)))
  (let ((let212 (ff.mul let211 let59)))
  (let ((let213 (= let212 let147)))
  (let ((let214 (ff.mul let119 let210)))
  (let ((let215 (ff.mul let114 let210)))
  (let ((let216 (ff.add let215 let214)))
  (let ((let217 (ff.mul let216 let87)))
  (let ((let218 (= let217 let117)))
  (let ((let219 (ff.add let54 let53 let155)))
  (let ((let220 (ff.mul let80 let219)))
  (let ((let221 (= let220 let119)))
  (let ((let222 (ff.add let63 let166)))
  (let ((let223 (ff.mul let44 let222)))
  (let ((let224 (= let223 let54)))
  (let ((let225 (ff.mul let87 let183)))
  (let ((let226 (= let225 let157)))
  (let ((let227 mul_n14_alt))
  (let ((let228 (ff.mul let227 let2)))
  (let ((let229 (ff.add let228 let1)))
  (let ((let230 (ff.mul let229 let156)))
  (let ((let231 (= let230 let3)))
  (let ((let232 (ff.mul let190 let2)))
  (let ((let233 (ff.add let232 let1)))
  (let ((let234 (ff.mul let80 let233)))
  (let ((let235 (= let234 let227)))
  (let ((let236 mul_n12_alt))
  (let ((let237 (ff.mul let236 let190)))
  (let ((let238 (= let237 let114)))
  (let ((let239 (ff.mul let70 let2)))
  (let ((let240 (ff.add let239 let1)))
  (let ((let241 (ff.mul let145 let240)))
  (let ((let242 (= let241 let236)))
  (let ((let243 (ff.add let81 let1)))
  (let ((let244 (ff.mul let134 let243)))
  (let ((let245 (= let244 let70)))
  (let ((let246 (and let245 let242 let238 let235 let231 let226 let224 let221 let218 let213 let209 let207 let204 let201 let196 let193 let189 let186 let182 let178 let175 let173 let170 let165 let163 let161 let154 let150 let140 let133 let130 let126 let123 let116 let113 let109 let106 let97 let92 let86 let79 let76 let69 let66 let62 let58 let52 let49 let43 let37 let32 let24 let18 let12 let8)))
  (let ((let247 return_n0))
  (let ((let248 mul_n15))
  (let ((let249 (ff.mul let248 let2)))
  (let ((let250 (ff.add let249 let1)))
  (let ((let251 mul_n64))
  (let ((let252 (ff.mul let251 let250)))
  (let ((let253 (= let252 let247)))
  (let ((let254 mul_n34))
  (let ((let255 mul_n63))
  (let ((let256 (ff.mul let255 let254)))
  (let ((let257 (= let256 let251)))
  (let ((let258 mul_n35))
  (let ((let259 (ff.mul let258 let2)))
  (let ((let260 (ff.add let259 let1)))
  (let ((let261 mul_n62))
  (let ((let262 (ff.mul let261 let260)))
  (let ((let263 (= let262 let255)))
  (let ((let264 mul_n49))
  (let ((let265 (ff.mul let264 let2)))
  (let ((let266 (ff.add let265 let1)))
  (let ((let267 mul_n61))
  (let ((let268 (ff.mul let267 let266)))
  (let ((let269 (= let268 let261)))
  (let ((let270 mul_n52))
  (let ((let271 (ff.mul let270 let2)))
  (let ((let272 (ff.add let271 let1)))
  (let ((let273 mul_n59))
  (let ((let274 mul_n60))
  (let ((let275 (ff.add let274 let273)))
  (let ((let276 (ff.mul let275 let272)))
  (let ((let277 (= let276 let267)))
  (let ((let278 (ff.mul let273 let2)))
  (let ((let279 mul_n37))
  (let ((let280 (ff.add let279 let278)))
  (let ((let281 (ff.mul let273 let280)))
  (let ((let282 (= let281 let274)))
  (let ((let283 mul_n29))
  (let ((let284 (ff.mul let283 let2)))
  (let ((let285 (ff.add let284 let1)))
  (let ((let286 mul_n58))
  (let ((let287 (ff.mul let286 let285)))
  (let ((let288 (= let287 let273)))
  (let ((let289 f_n1))
  (let ((let290 (ff.mul let289 let2)))
  (let ((let291 (ff.add let290 let1)))
  (let ((let292 mul_n57))
  (let ((let293 (ff.mul let292 let291)))
  (let ((let294 (= let293 let286)))
  (let ((let295 mul_n56))
  (let ((let296 (ff.mul let295 let289)))
  (let ((let297 (= let296 let292)))
  (let ((let298 a_n10))
  (let ((let299 mul_n17))
  (let ((let300 (ff.add let299 let298)))
  (let ((let301 mul_n55))
  (let ((let302 (ff.mul let301 let300)))
  (let ((let303 (= let302 let295)))
  (let ((let304 h_n7))
  (let ((let305 mul_n54))
  (let ((let306 (ff.mul let305 let304)))
  (let ((let307 (= let306 let301)))
  (let ((let308 d_n4))
  (let ((let309 mul_n53))
  (let ((let310 (ff.mul let309 let308)))
  (let ((let311 (= let310 let305)))
  (let ((let312 mul_n28))
  (let ((let313 (ff.mul let291 let312)))
  (let ((let314 (= let313 let309)))
  (let ((let315 mul_n11))
  (let ((let316 mul_n50))
  (let ((let317 (ff.mul let316 let2)))
  (let ((let318 (ff.add let317 let315)))
  (let ((let319 mul_n51))
  (let ((let320 (ff.mul let319 let318)))
  (let ((let321 (= let320 let270)))
  (let ((let322 mul_n45))
  (let ((let323 (ff.mul let254 let322)))
  (let ((let324 (= let323 let319)))
  (let ((let325 b_n8))
  (let ((let326 (ff.mul let325 let2)))
  (let ((let327 (ff.add let326 let315)))
  (let ((let328 (ff.mul let322 let2)))
  (let ((let329 (ff.add let328 let1)))
  (let ((let330 (ff.mul let329 let327)))
  (let ((let331 (= let330 let316)))
  (let ((let332 c_n6))
  (let ((let333 (ff.mul let332 let2)))
  (let ((let334 (ff.add let333 let1)))
  (let ((let335 mul_n48))
  (let ((let336 (ff.mul let335 let334)))
  (let ((let337 (= let336 let264)))
  (let ((let338 (ff.mul let279 let2)))
  (let ((let339 (ff.add let338 let1)))
  (let ((let340 mul_n47))
  (let ((let341 (ff.mul let340 let339)))
  (let ((let342 (= let341 let335)))
  (let ((let343 mul_n38))
  (let ((let344 (ff.mul let343 let2)))
  (let ((let345 mul_n46))
  (let ((let346 (ff.mul let345 let2)))
  (let ((let347 g_n9))
  (let ((let348 (ff.mul let347 let2)))
  (let ((let349 (ff.add let348 let346 let344 let1)))
  (let ((let350 (ff.mul let325 let349)))
  (let ((let351 (= let350 let340)))
  (let ((let352 (ff.add let348 let344 let304)))
  (let ((let353 (ff.mul let329 let352)))
  (let ((let354 (= let353 let345)))
  (let ((let355 mul_n43))
  (let ((let356 mul_n44))
  (let ((let357 (ff.mul let356 let355)))
  (let ((let358 (= let357 let322)))
  (let ((let359 mul_n13))
  (let ((let360 (ff.mul let359 let355)))
  (let ((let361 (= let360 let356)))
  (let ((let362 mul_n19))
  (let ((let363 (ff.mul let362 let2)))
  (let ((let364 mul_n18))
  (let ((let365 (ff.add let359 let364 let332 let363)))
  (let ((let366 mul_n42))
  (let ((let367 (ff.mul let366 let365)))
  (let ((let368 (= let367 let355)))
  (let ((let369 mul_n41))
  (let ((let370 (ff.mul let369 let365)))
  (let ((let371 (= let370 let366)))
  (let ((let372 (ff.add let348 let344 let1)))
  (let ((let373 mul_n40))
  (let ((let374 (ff.mul let373 let372)))
  (let ((let375 (= let374 let369)))
  (let ((let376 mul_n39))
  (let ((let377 (ff.mul let376 let372)))
  (let ((let378 (= let377 let373)))
  (let ((let379 e_n2))
  (let ((let380 (ff.mul let379 let2)))
  (let ((let381 mul_n30))
  (let ((let382 (ff.mul let381 let2)))
  (let ((let383 (ff.add let382 let380 let1)))
  (let ((let384 (ff.mul let383 let332)))
  (let ((let385 (= let384 let376)))
  (let ((let386 mul_n33))
  (let ((let387 (ff.mul let386 let2)))
  (let ((let388 (ff.add let387 let348 let1)))
  (let ((let389 (ff.mul let304 let2)))
  (let ((let390 i_n5))
  (let ((let391 (ff.mul let390 let2)))
  (let ((let392 mul_n20))
  (let ((let393 (ff.add let392 let391 let389 let1)))
  (let ((let394 (ff.mul let393 let388)))
  (let ((let395 (= let394 let343)))
  (let ((let396 (ff.add let359 let364)))
  (let ((let397 mul_n36))
  (let ((let398 (ff.mul let397 let396)))
  (let ((let399 (= let398 let279)))
  (let ((let400 (ff.mul let359 let2)))
  (let ((let401 (ff.add let400 let1)))
  (let ((let402 mul_n16))
  (let ((let403 (ff.mul let402 let2)))
  (let ((let404 (ff.add let403 let1)))
  (let ((let405 (ff.mul let404 let401)))
  (let ((let406 (= let405 let397)))
  (let ((let407 (ff.mul let312 let359)))
  (let ((let408 (= let407 let258)))
  (let ((let409 (ff.mul let285 let386)))
  (let ((let410 (= let409 let254)))
  (let ((let411 (ff.mul let298 let2)))
  (let ((let412 (ff.add let411 let1)))
  (let ((let413 mul_n32))
  (let ((let414 (ff.mul let413 let412)))
  (let ((let415 (= let414 let386)))
  (let ((let416 mul_n31))
  (let ((let417 (ff.mul let416 let283)))
  (let ((let418 (= let417 let413)))
  (let ((let419 (ff.mul let315 let383)))
  (let ((let420 (= let419 let416)))
  (let ((let421 (ff.add let298 let380)))
  (let ((let422 (ff.mul let359 let421)))
  (let ((let423 (= let422 let381)))
  (let ((let424 (ff.mul let312 let2)))
  (let ((let425 (ff.add let424 let1)))
  (let ((let426 (ff.mul let404 let425)))
  (let ((let427 (= let426 let283)))
  (let ((let428 (ff.add let348 let1)))
  (let ((let429 mul_n27))
  (let ((let430 (ff.mul let429 let428)))
  (let ((let431 (= let430 let312)))
  (let ((let432 mul_n26))
  (let ((let433 (ff.mul let432 let404)))
  (let ((let434 (= let433 let429)))
  (let ((let435 j_n3))
  (let ((let436 mul_n25))
  (let ((let437 (ff.mul let436 let435)))
  (let ((let438 (= let437 let432)))
  (let ((let439 mul_n24))
  (let ((let440 (ff.mul let439 let428)))
  (let ((let441 (= let440 let436)))
  (let ((let442 (ff.mul let364 let2)))
  (let ((let443 (ff.add let400 let442 let333 let362 let1)))
  (let ((let444 mul_n23))
  (let ((let445 (ff.mul let444 let443)))
  (let ((let446 (= let445 let439)))
  (let ((let447 mul_n22))
  (let ((let448 (ff.mul let447 let393)))
  (let ((let449 (= let448 let444)))
  (let ((let450 mul_n21))
  (let ((let451 (ff.mul let450 let379)))
  (let ((let452 (= let451 let447)))
  (let ((let453 (ff.mul let308 let396)))
  (let ((let454 (= let453 let450)))
  (let ((let455 (ff.mul let390 let210)))
  (let ((let456 (ff.mul let455 let304)))
  (let ((let457 (= let456 let392)))
  (let ((let458 (ff.mul let364 let210)))
  (let ((let459 (ff.mul let359 let210)))
  (let ((let460 (ff.add let459 let458)))
  (let ((let461 (ff.mul let460 let332)))
  (let ((let462 (= let461 let362)))
  (let ((let463 (ff.add let299 let298 let400)))
  (let ((let464 (ff.mul let325 let463)))
  (let ((let465 (= let464 let364)))
  (let ((let466 (ff.add let308 let411)))
  (let ((let467 (ff.mul let289 let466)))
  (let ((let468 (= let467 let299)))
  (let ((let469 (ff.mul let332 let428)))
  (let ((let470 (= let469 let402)))
  (let ((let471 mul_n14))
  (let ((let472 (ff.mul let471 let2)))
  (let ((let473 (ff.add let472 let1)))
  (let ((let474 (ff.mul let473 let401)))
  (let ((let475 (= let474 let248)))
  (let ((let476 (ff.mul let435 let2)))
  (let ((let477 (ff.add let476 let1)))
  (let ((let478 (ff.mul let325 let477)))
  (let ((let479 (= let478 let471)))
  (let ((let480 mul_n12))
  (let ((let481 (ff.mul let480 let435)))
  (let ((let482 (= let481 let359)))
  (let ((let483 (ff.mul let315 let2)))
  (let ((let484 (ff.add let483 let1)))
  (let ((let485 (ff.mul let390 let484)))
  (let ((let486 (= let485 let480)))
  (let ((let487 (ff.add let326 let1)))
  (let ((let488 (ff.mul let379 let487)))
  (let ((let489 (= let488 let315)))
  (let ((let490 (and let489 let486 let482 let479 let475 let470 let468 let465 let462 let457 let454 let452 let449 let446 let441 let438 let434 let431 let427 let423 let420 let418 let415 let410 let408 let406 let399 let395 let385 let378 let375 let371 let368 let361 let358 let354 let351 let342 let337 let331 let324 let321 let314 let311 let307 let303 let297 let294 let288 let282 let277 let269 let263 let257 let253)))
  (let ((let491 (= let247 let0)))
  (let ((let492 (not let491)))
  (let ((let493 (= let308 let63)))
  (let ((let494 (= let379 let134)))
  (let ((let495 (= let332 let87)))
  (let ((let496 (= let347 let102)))
  (let ((let497 (= let435 let190)))
  (let ((let498 (= let289 let44)))
  (let ((let499 (= let298 let53)))
  (let ((let500 (= let390 let145)))
  (let ((let501 (= let304 let59)))
  (let ((let502 (= let325 let80)))
  (let ((let503 (and let502 let501 let500 let499 let498 let497 let496 let495 let494 let493)))
  (let ((let504 (and let503 let492 let490 let246)))
  let504
)))))))))))))))))))))))))))))))))))))))))))))))))))))))))))))))))))))))))))))))))))))))))))))))))))))))))))))))))))))))))))))))))))))))))))))))))))))))))))))))))))))))))))))))))))))))))))))))))))))))))))))))))))))))))))))))))))))))))))))))))))))))))))))))))))))))))))))))))))))))))))))))))))))))))))))))))))))))))))))))))))))))))))))))))))))))))))))))))))))))))))))))))))))))))))))))))))))))))))))))))))))))))))))))))))))))))))))))))))))))))))))))))))))))))))))))))))))))))))))))))))))))))))))))))))))))))
)
(check-sat)
